50
13234

135 795
177 51
102 611
422 399
755 353
331 262
590 137
638 232
173 394
727 688
873 553
838 740
112 437
67 152
825 980
526 205
712 795
698 460
446 697
788 27
713 139
902 542
239 634
673 852
683 497
585 138
437 154
531 826
62 812
619 383
726 704
728 640
117 737
498 221
607 69
934 543
13 104
310 925
402 76
977 612
48 595
247 232
116 626
241 673
123 247
450 476
767 469
115 252
852 786
614 412
